rectOffsets = 
    [|0,0,3,3|0,0,3,3|0,0,3,4|0,0,4,3|0,0,3,5|0,0,5,3|0,0,3,6|0,0,6,3|0,0,3,7|0,0,7,3|0,0,3,8|0,0,8,3|0,0,3,9|0,0,9,3|0,0,3,10|0,0,10,3|0,0,3,12|0,0,12,3|0,0,3,19|0,0,19,3|0,0,3,22|0,0,22,3|0,0,4,3|0,0,3,4|0,0,4,4|0,0,4,4|0,0,4,5|0,0,5,4|0,0,4,6|0,0,6,4|0,0,4,7|0,0,7,4|0,0,4,8|0,0,8,4|0,0,4,12|0,0,12,4|0,0,4,17|0,0,17,4|0,0,4,20|0,0,20,4|0,0,4,23|0,0,23,4|0,0,14,35|0,0,35,14|];

shape = array1d(1..44, [{1}, {2}, {3}, {4}, {5}, {6}, {7}, {8}, {9}, {10},
    {11}, {12}, {13}, {14}, {15}, {16}, {17}, {18}, {19}, {20}, {21},
    {22}, {23}, {24}, {25}, {26}, {27}, {28}, {29}, {30}, {31}, {32},
    {33}, {34}, {35}, {36}, {37}, {38}, {39}, {40}, {41}, {42}, {43},
    {44}]);

validshapes = array1d(1..22, [{1,2}, {3,4}, {5,6}, {7,8}, {9,10}, {11,12}, {13,14},
    {15,16}, {17,18}, {19,20}, {21,22}, {23,24}, {25,26}, {27,28},
    {29,30}, {31,32}, {33,34}, {35,36}, {37,38}, {39,40}, {41,42},
    {43,44}]);

dx = array1d(1..22, [3, 3, 3, 3, 3, 3, 3, 3, 3, 3, 3, 4, 4, 4, 4, 4, 4, 4,
    4, 4, 4, 14]);

dy = array1d(1..22, [3, 4, 5, 6, 7, 8, 9, 10, 12, 19, 22, 3, 4, 5, 6, 7, 8,
    12, 17, 20, 23, 35]);

w = 35;

n = 22;

o = 44;

